8
28
0 1 59
0 2 96
0 3 113
0 4 84
0 5 41
0 6 45
0 7 40
1 2 79
1 3 54
1 4 45
1 5 18
1 6 60
1 7 85
2 3 133
2 4 46
2 5 65
2 6 117
2 7 56
3 4 87
3 5 72
3 6 68
3 7 139
4 5 53
4 6 105
4 7 52
5 6 52
5 7 67
6 7 71
